<number of tasks>
20

<cycle time>
1000

<order strength>
0,184


<task times>
1 176
2 252
3 95
4 42
5 104
6 180
7 56
8 71
9 82
10 232
11 67
12 60
13 243
14 252
15 197
16 56
17 149
18 275
19 247
20 34

<precedence relations>
1,6
1,9
3,8
3,10
5,7
6,11
6,13
8,12
11,14
11,15
12,16
12,17
15,18
15,20
16,19

<end>
